peakDumbCharging = 22200; 
Machine = anon_enum(16); 
machineSpeed = [3700,3700,3700,3700,3700,3700,3700,3700,3700,3700,3700,3700,3700,3700,3700,3700]; 
machineLoad = [3700,3700,3700,3700,3700,3700,3700,3700,3700,3700,3700,3700,3700,3700,3700,3700]; 
Car = anon_enum(35); 
demandCar = [4280,14080,7520,11680,880,17000,11880,16600,6400,17160,480,8200,4000,8200,1040,31200,7240,8360,18840,5760,22040,17120,8400,8920,7800,6400,8880,10480,4000,12120,34960,6840,4040,22000,42120]; 
arrivalCar = [77,75,72,70,65,64,62,61,61,61,60,59,56,56,54,53,52,51,50,49,46,46,45,44,43,42,40,39,38,34,33,31,29,28,26]; 
departureCar = [80,81,75,74,66,71,70,71,65,67,62,63,59,60,55,77,56,54,59,54,59,52,50,48,47,46,44,47,41,46,63,36,31,41,61]; 
